# Objective value = 1.9175209629537837e+03
x[0] 0
x[1] 1
x[2] 0
x[3] 0
x[4] 1
x[5] 0
x[6] 1
x[7] 1
x[8] 1
x[9] 1
x[10] 1
x[11] 0
x[12] 0
x[13] 0
x[14] 0
x[15] 1
x[16] 1
x[17] 0
x[18] 0
x[19] 0
x[20] 0
x[21] 0
x[22] 0
x[23] 1
x[24] 0
x[25] 0
x[26] 0
x[27] 0
x[28] 1
x[29] 1
x[30] 0
x[31] 1
x[32] 1
x[33] 1
x[34] 1
x[35] 0
x[36] 0
x[37] 0
x[38] 1
x[39] 0
x[40] 1
x[41] 1
x[42] 1
x[43] 0
x[44] 1
x[45] 1
x[46] 0
x[47] 0
x[48] 1
x[49] 0
x[50] 0
x[51] 0
x[52] 1
x[53] 0
x[54] 1
x[55] 1
x[56] 1
x[57] 1
x[58] 0
x[59] 0
x[60] 1
x[61] 0
x[62] 0
x[63] 1
x[64] 1
x[65] 1
x[66] 0
x[67] 0
x[68] 0
x[69] 0
x[70] 0
x[71] 1
x[72] 1
x[73] 0
x[74] 1
x[75] 0
x[76] 0
x[77] 1
x[78] 0
x[79] 1
x[80] 0
x[81] 1
x[82] 0
x[83] 1
x[84] 0
x[85] 1
x[86] 1
x[87] 1
x[88] 0
x[89] 1
x[90] 0
x[91] 0
x[92] 0
x[93] 0
x[94] 0
x[95] 0
x[96] 0
x[97] 1
x[98] 1
x[99] 0
x[100] 0
x[101] 0
x[102] 0
x[103] 0
x[104] 0
x[105] 1
x[106] 1
x[107] 0
x[108] 1
x[109] 0
x[110] 0
x[111] 1
x[112] 0
x[113] 1
x[114] 1
x[115] 1
x[116] 0
x[117] 1
x[118] 0
x[119] 1
x[120] 0
x[121] 1
x[122] 0
x[123] 1
x[124] 1
x[125] 1
x[126] 1
x[127] 0
x[128] 1
x[129] 1
x[130] 1
x[131] 1
x[132] 1
x[133] 0
x[134] 0
x[135] 1
x[136] 0
x[137] 1
x[138] 1
x[139] 1
x[140] 1
x[141] 0
x[142] 0
x[143] 1
x[144] 1
x[145] 1
x[146] 0
x[147] 1
x[148] 1
x[149] 0
x[150] 0
x[151] 1
x[152] 0
x[153] 1
x[154] 1
x[155] 0
x[156] 0
x[157] 0
x[158] 1
x[159] 0
x[160] 1
x[161] 0
x[162] 1
x[163] 0
x[164] 1
x[165] 0
x[166] 0
x[167] 1
x[168] 1
x[169] 0
x[170] 1
x[171] 0
x[172] 0
x[173] 1
x[174] 1
x[175] 1
x[176] 1
x[177] 1
x[178] 0
x[179] 0
x[180] 0
x[181] 1
x[182] 1
x[183] 0
x[184] 0
x[185] 0
x[186] 1
x[187] 1
x[188] 0
x[189] 0
x[190] 0
x[191] 1
x[192] 0
x[193] 1
x[194] 1
x[195] 0
x[196] 1
x[197] 0
x[198] 1
x[199] 0
x[200] 1
x[201] 1
x[202] 1
x[203] 1
x[204] 0
x[205] 0
x[206] 1
x[207] 1
x[208] 1
x[209] 0
x[210] 1
x[211] 1
x[212] 0
x[213] 1
x[214] 0
x[215] 1
x[216] 0
x[217] 1
x[218] 1
x[219] 1
x[220] 1
x[221] 0
x[222] 1
x[223] 1
x[224] 1
x[225] 0
x[226] 0
x[227] 0
x[228] 1
x[229] 1
x[230] 0
x[231] 0
x[232] 0
x[233] 0
x[234] 0
x[235] 0
x[236] 1
x[237] 1
x[238] 0
x[239] 0
x[240] 0
x[241] 1
x[242] 1
x[243] 1
x[244] 0
x[245] 0
x[246] 1
x[247] 0
x[248] 1
x[249] 0
x[250] 0
x[251] 1
x[252] 1
x[253] 0
x[254] 1
x[255] 1
x[256] 1
x[257] 1
x[258] 0
x[259] 1
x[260] 0
x[261] 0
x[262] 1
x[263] 1
x[264] 0
x[265] 1
x[266] 1
x[267] 0
x[268] 1
x[269] 1
x[270] 0
x[271] 0
x[272] 0
x[273] 1
x[274] 1
x[275] 0
x[276] 1
x[277] 1
x[278] 1
x[279] 0
x[280] 0
x[281] 1
x[282] 0
x[283] 0
x[284] 1
x[285] 1
x[286] 1
x[287] 0
x[288] 1
x[289] 0
x[290] 1
x[291] 1
x[292] 1
x[293] 0
x[294] 1
x[295] 1
x[296] 0
x[297] 1
x[298] 1
x[299] 1
x[300] 0
x[301] 1
x[302] 0
x[303] 0
x[304] 1
x[305] 1
x[306] 1
x[307] 1
x[308] 1
x[309] 0
x[310] 0
x[311] 1
x[312] 1
x[313] 1
x[314] 0
x[315] 1
x[316] 0
x[317] 1
x[318] 1
x[319] 1
x[320] 1
x[321] 0
x[322] 1
x[323] 1
x[324] 0
x[325] 1
x[326] 0
x[327] 1
x[328] 0
x[329] 1
x[330] 1
x[331] 0
x[332] 1
x[333] 1
x[334] 1
x[335] 1
x[336] 1
x[337] 0
x[338] 0
x[339] 1
x[340] 1
x[341] 1
x[342] 0
x[343] 0
x[344] 1
x[345] 0
x[346] 1
x[347] 0
x[348] 1
x[349] 1
x[350] 1
x[351] 1
x[352] 0
x[353] 1
x[354] 1
x[355] 0
x[356] 1
x[357] 0
x[358] 1
x[359] 0
x[360] 1
x[361] 1
x[362] 1
x[363] 1
x[364] 0
x[365] 1
x[366] 1
x[367] 0
x[368] 1
x[369] 0
x[370] 0
x[371] 0
x[372] 1
x[373] 1
x[374] 1
x[375] 0
x[376] 0
x[377] 0
x[378] 1
x[379] 0
x[380] 1
x[381] 1
x[382] 0
x[383] 0
x[384] 1
x[385] 1
x[386] 1
x[387] 1
x[388] 0
x[389] 0
x[390] 1
x[391] 0
x[392] 0
x[393] 1
x[394] 0
x[395] 1
x[396] 1
x[397] 1
x[398] 1
x[399] 1
x[400] 1
x[401] 0
x[402] 1
x[403] 1
x[404] 1
x[405] 0
x[406] 1
x[407] 0
x[408] 0
x[409] 0
x[410] 1
x[411] 1
x[412] 0
x[413] 1
x[414] 1
x[415] 0
x[416] 1
x[417] 0
x[418] 0
x[419] 0
x[420] 0
x[421] 0
x[422] 1
x[423] 1
x[424] 0
x[425] 0
x[426] 1
x[427] 0
x[428] 0
x[429] 1
x[430] 0
x[431] 0
x[432] 0
x[433] 1
x[434] 1
x[435] 0
x[436] 1
x[437] 0
x[438] 0
x[439] 0
x[440] 1
x[441] 1
x[442] 1
x[443] 0
x[444] 0
x[445] 1
x[446] 1
x[447] 1
x[448] 0
x[449] 1
x[450] 0
x[451] 0
x[452] 0
x[453] 1
x[454] 1
x[455] 0
x[456] 1
x[457] 1
x[458] 1
x[459] 1
x[460] 1
x[461] 1
x[462] 1
x[463] 0
x[464] 1
x[465] 1
x[466] 0
x[467] 0
x[468] 1
x[469] 1
x[470] 0
x[471] 0
x[472] 1
x[473] 1
x[474] 0
x[475] 1
x[476] 1
x[477] 0
x[478] 1
x[479] 1
x[480] 1
x[481] 1
x[482] 1
x[483] 1
x[484] 1
x[485] 1
x[486] 0
x[487] 1
x[488] 1
x[489] 0
x[490] 1
x[491] 1
x[492] 0
x[493] 1
x[494] 1
x[495] 1
x[496] 0
x[497] 0
x[498] 1
x[499] 1
x[500] 1
x[501] 1
x[502] 1
x[503] 0
x[504] 1
x[505] 0
x[506] 1
x[507] 0
x[508] 0
x[509] 1
x[510] 0
x[511] 1
x[512] 0
x[513] 0
x[514] 1
x[515] 1
x[516] 0
x[517] 1
x[518] 1
x[519] 0
x[520] 1
x[521] 0
x[522] 0
x[523] 1
x[524] 0
x[525] 0
x[526] 1
x[527] 0
x[528] 1
x[529] 0
x[530] 1
x[531] 1
x[532] 1
x[533] 1
x[534] 1
x[535] 0
x[536] 0
x[537] 0
x[538] 1
x[539] 0
x[540] 1
x[541] 0
x[542] 1
x[543] 0
x[544] 1
x[545] 0
x[546] 0
x[547] 1
x[548] 0
x[549] 0
x[550] 1
x[551] 0
x[552] 0
x[553] 1
x[554] 1
x[555] 1
x[556] 1
x[557] 1
x[558] 0
x[559] 1
x[560] 1
x[561] 0
x[562] 0
x[563] 1
x[564] 1
x[565] 1
x[566] 1
x[567] 0
x[568] 0
x[569] 1
x[570] 0
x[571] 1
x[572] 1
x[573] 0
x[574] 0
x[575] 1
x[576] 1
x[577] 1
x[578] 0
x[579] 1
x[580] 0
x[581] 1
x[582] 1
x[583] 0
x[584] 0
x[585] 0
x[586] 1
x[587] 0
x[588] 1
x[589] 1
x[590] 1
x[591] 1
x[592] 1
x[593] 0
x[594] 0
x[595] 1
x[596] 0
x[597] 1
x[598] 1
x[599] 1
x[600] 0
x[601] 1
x[602] 1
x[603] 1
x[604] 1
x[605] 0
x[606] 0
x[607] 0
x[608] 1
x[609] 1
x[610] 0
x[611] 0
x[612] 1
x[613] 0
x[614] 0
x[615] 1
x[616] 1
x[617] 1
x[618] 1
x[619] 0
x[620] 1
x[621] 1
x[622] 0
x[623] 1
x[624] 1
x[625] 0
x[626] 0
x[627] 1
x[628] 1
x[629] 0
x[630] 1
x[631] 0
x[632] 1
x[633] 0
x[634] 0
x[635] 0
x[636] 1
x[637] 0
x[638] 1
x[639] 0
x[640] 1
x[641] 1
x[642] 0
x[643] 0
x[644] 1
x[645] 1
x[646] 1
x[647] 1
x[648] 0
x[649] 1
x[650] 1
x[651] 0
x[652] 0
x[653] 0
x[654] 0
x[655] 1
x[656] 1
x[657] 0
x[658] 0
x[659] 0
x[660] 1
x[661] 1
x[662] 0
x[663] 0
x[664] 1
x[665] 1
x[666] 0
x[667] 1
x[668] 1
x[669] 0
x[670] 0
x[671] 1
x[672] 1
x[673] 1
x[674] 0
x[675] 0
x[676] 1
x[677] 1
x[678] 1
x[679] 0
x[680] 1
x[681] 0
x[682] 0
x[683] 1
x[684] 0
x[685] 1
x[686] 1
x[687] 1
x[688] 1
x[689] 0
x[690] 0
x[691] 0
x[692] 0
x[693] 0
x[694] 1
x[695] 0
x[696] 0
x[697] 1
x[698] 1
x[699] 0
x[700] 1
x[701] 0
x[702] 0
x[703] 0
x[704] 1
x[705] 0
x[706] 1
x[707] 1
x[708] 1
x[709] 0
x[710] 1
x[711] 0
x[712] 1
x[713] 1
x[714] 0
x[715] 1
x[716] 0
x[717] 0
x[718] 1
x[719] 0
x[720] 0
x[721] 0
x[722] 0
x[723] 1
x[724] 0
x[725] 1
x[726] 1
x[727] 0
x[728] 1
x[729] 1
x[730] 1
x[731] 1
x[732] 0
x[733] 1
x[734] 1
x[735] 1
x[736] 1
x[737] 0
x[738] 0
x[739] 1
x[740] 1
x[741] 0
x[742] 0
x[743] 1
x[744] 1
x[745] 0
x[746] 0
x[747] 1
x[748] 1
x[749] 1
x[750] 0
x[751] 0
x[752] 1
x[753] 1
x[754] 0
x[755] 0
x[756] 1
x[757] 1
x[758] 0
x[759] 1
x[760] 1
x[761] 0
x[762] 1
x[763] 0
x[764] 1
x[765] 0
x[766] 0
x[767] 0
x[768] 0
x[769] 0
x[770] 0
x[771] 1
x[772] 0
x[773] 1
x[774] 1
x[775] 1
x[776] 0
x[777] 0
x[778] 1
x[779] 0
x[780] 1
x[781] 0
x[782] 1
x[783] 1
x[784] 0
x[785] 0
x[786] 1
x[787] 1
x[788] 0
x[789] 0
x[790] 1
x[791] 0
x[792] 1
x[793] 1
x[794] 0
x[795] 1
x[796] 0
x[797] 1
x[798] 1
x[799] 1
x[800] 0
x[801] 1
x[802] 0
x[803] 0
x[804] 0
x[805] 1
x[806] 1
x[807] 0
x[808] 0
x[809] 1
x[810] 0
x[811] 0
x[812] 0
x[813] 1
x[814] 0
x[815] 1
x[816] 0
x[817] 1
x[818] 1
x[819] 1
x[820] 1
x[821] 1
x[822] 1
x[823] 1
x[824] 1
x[825] 0
x[826] 0
x[827] 0
x[828] 0
x[829] 1
x[830] 1
x[831] 1
x[832] 1
x[833] 1
x[834] 1
x[835] 0
x[836] 0
x[837] 1
x[838] 0
x[839] 0
x[840] 1
x[841] 0
x[842] 0
x[843] 0
x[844] 0
x[845] 0
x[846] 1
x[847] 0
x[848] 1
x[849] 0
x[850] 1
x[851] 1
x[852] 1
x[853] 1
x[854] 0
x[855] 0
x[856] 0
x[857] 1
x[858] 1
x[859] 1
x[860] 0
x[861] 1
x[862] 0
x[863] 1
x[864] 0
x[865] 1
x[866] 1
x[867] 1
x[868] 1
x[869] 0
x[870] 0
x[871] 0
x[872] 0
x[873] 1
x[874] 1
x[875] 1
x[876] 1
x[877] 1
x[878] 1
x[879] 1
x[880] 1
x[881] 1
x[882] 1
x[883] 1
x[884] 1
x[885] 1
x[886] 1
x[887] 0
x[888] 0
x[889] 0
x[890] 0
x[891] 1
x[892] 0
x[893] 0
x[894] 0
x[895] 0
x[896] 0
x[897] 1
x[898] 1
x[899] 1
x[900] 0
x[901] 0
x[902] 1
x[903] 1
x[904] 0
x[905] 0
x[906] 1
x[907] 1
x[908] 0
x[909] 1
x[910] 0
x[911] 0
x[912] 0
x[913] 1
x[914] 1
x[915] 1
x[916] 1
x[917] 1
x[918] 0
x[919] 1
x[920] 1
x[921] 1
x[922] 1
x[923] 0
x[924] 1
x[925] 1
x[926] 1
x[927] 1
x[928] 1
x[929] 0
x[930] 1
x[931] 1
x[932] 1
x[933] 1
x[934] 1
x[935] 0
x[936] 0
x[937] 1
x[938] 0
x[939] 0
x[940] 1
x[941] 1
x[942] 0
x[943] 1
x[944] 0
x[945] 1
x[946] 1
x[947] 0
x[948] 0
x[949] 0
x[950] 1
x[951] 0
x[952] 0
x[953] 1
x[954] 1
x[955] 0
x[956] 1
x[957] 0
x[958] 0
x[959] 1
x[960] 0
x[961] 1
x[962] 0
x[963] 1
x[964] 0
x[965] 1
x[966] 0
x[967] 1
x[968] 1
x[969] 1
x[970] 0
x[971] 1
x[972] 0
x[973] 0
x[974] 0
x[975] 1
x[976] 1
x[977] 1
x[978] 1
x[979] 0
x[980] 1
x[981] 0
x[982] 0
x[983] 0
x[984] 0
x[985] 1
x[986] 1
x[987] 0
x[988] 0
x[989] 0
x[990] 1
x[991] 1
x[992] 1
x[993] 0
x[994] 0
x[995] 0
x[996] 1
x[997] 0
x[998] 1
x[999] 1
